
Gurobi 10.0.3 (linux64, gurobi_cl) logging started Thu Nov  2 11:34:03 2023

Set parameter Username
Set parameter TimeLimit to value 3600
Set parameter LogFile to value "RCPSP_371.log"
Set parameter Threads to value 32
Academic license - for non-commercial use only - expires 2024-10-30
Using license file /home/jrivera6/gurobi-licenses/v1003/compute-0-39/gurobi.lic

Gurobi Optimizer version 10.0.3 build v10.0.3rc0 (linux64)
Copyright (c) 2023, Gurobi Optimization, LLC

Read MPS format model from file RCPSP_371.mps
Reading time = 0.01 seconds
RCPSP_371: 5349 rows, 2080 columns, 17064 nonzeros

CPU model: Intel(R) Xeon(R) Gold 6242 CPU @ 2.80GHz, instruction set [SSE2|AVX|AVX2|AVX512]
Thread count: 32 physical cores, 32 logical processors, using up to 32 threads

Optimize a model with 5349 rows, 2080 columns and 17064 nonzeros
Model fingerprint: 0xe50d6fee
Variable types: 32 continuous, 2048 integer (2048 binary)
Coefficient statistics:
  Matrix range     [1e+00, 2e+02]
  Objective range  [1e+00, 1e+00]
  Bounds range     [1e+00, 1e+00]
  RHS range        [1e+00, 2e+02]
Presolve removed 3385 rows and 1339 columns
Presolve time: 0.27s
Presolved: 1964 rows, 741 columns, 6075 nonzeros
Variable types: 31 continuous, 710 integer (710 binary)

Root relaxation: objective 4.600000e+01, 268 iterations, 0.00 seconds (0.00 work units)

    Nodes    |    Current Node    |     Objective Bounds      |     Work
 Expl Unexpl |  Obj  Depth IntInf | Incumbent    BestBd   Gap | It/Node Time

     0     0   46.00000    0    4          -   46.00000      -     -    0s
H    0     0                      48.0000000   46.00000  4.17%     -    0s
     0     0   46.00000    0   19   48.00000   46.00000  4.17%     -    0s
H    0     0                      46.0000000   46.00000  0.00%     -    1s
     0     0   46.00000    0   10   46.00000   46.00000  0.00%     -    1s

Explored 1 nodes (949 simplex iterations) in 1.88 seconds (0.31 work units)
Thread count was 32 (of 32 available processors)

Solution count 2: 46 48 

Optimal solution found (tolerance 1.00e-04)
Best objective 4.600000000000e+01, best bound 4.600000000000e+01, gap 0.0000%

Wrote result file 'RCPSP_371.sol'

